50
120
99
98
98
97
96
93
88
86
86
85
85
81
80
80
77
76
74
73
73
72
69
69
67
66
66
65
64
63
63
62
60
59
59
59
54
54
51
49
49
46
43
43
38
38
38
38
36
36
35
33
